c description: Random 3-CNF over 11 variables and 33 clauses
p cnf 11 33
6 7 -9 0
1 -3 6 0
-6 7 -9 0
-2 5 7 0
7 8 -10 0
-5 7 8 0
2 -4 -8 0
2 -6 -9 0
-2 -8 10 0
1 2 -3 0
1 4 9 0
-3 -4 9 0
-4 5 10 0
3 6 11 0
2 -7 -8 0
1 3 6 0
-8 -10 11 0
-2 -4 8 0
-4 7 8 0
1 -2 -8 0
1 3 4 0
3 -6 -10 0
2 6 8 0
6 8 -9 0
-1 7 -8 0
5 9 11 0
-6 9 -11 0
-4 10 -11 0
-2 -4 -11 0
1 -4 5 0
4 -5 7 0
-2 5 10 0
5 -8 11 0